c Created with the Wolfram Language : www.wolfram.com
c 
p edge 70 245
e 3 6
e 1 8
e 8 10
e 1 11
e 3 12
e 3 13
e 6 13
e 11 13
e 2 14
e 11 16
e 15 16
e 9 18
e 13 18
e 16 18
e 5 19
e 9 19
e 14 21
e 2 22
e 11 22
e 14 22
e 19 22
e 21 22
e 10 23
e 12 23
e 19 23
e 2 24
e 19 24
e 5 25
e 17 25
e 24 25
e 3 26
e 7 26
e 23 26
e 8 27
e 10 27
e 14 27
e 16 27
e 6 28
e 7 28
e 8 28
e 11 29
e 18 29
e 26 29
e 27 29
e 8 30
e 22 30
e 25 30
e 18 31
e 21 31
e 26 31
e 2 33
e 3 33
e 11 33
e 16 33
e 23 34
e 28 34
e 29 34
e 23 35
e 6 36
e 8 37
e 22 37
e 25 37
e 27 37
e 33 37
e 34 37
e 2 38
e 10 38
e 13 38
e 31 38
e 2 39
e 5 39
e 10 39
e 17 39
e 22 39
e 23 39
e 24 39
e 26 39
e 35 39
e 10 40
e 11 40
e 15 40
e 19 40
e 25 40
e 35 40
e 38 40
e 21 41
e 26 41
e 34 41
e 35 41
e 4 42
e 9 42
e 33 42
e 35 42
e 10 43
e 16 43
e 22 43
e 10 44
e 40 44
e 42 44
e 8 45
e 13 45
e 15 45
e 20 46
e 21 46
e 35 46
e 4 47
e 13 47
e 18 47
e 32 47
e 36 47
e 38 47
e 46 47
e 3 48
e 5 48
e 9 48
e 16 48
e 27 48
e 29 48
e 31 48
e 34 48
e 39 48
e 26 49
e 30 49
e 32 49
e 43 49
e 4 50
e 7 50
e 8 50
e 29 50
e 31 50
e 1 51
e 14 51
e 20 51
e 22 51
e 1 52
e 41 52
e 46 52
e 48 52
e 18 53
e 27 53
e 28 53
e 38 53
e 40 53
e 42 53
e 48 53
e 52 53
e 16 54
e 24 54
e 25 54
e 26 54
e 31 54
e 12 55
e 19 55
e 35 55
e 38 55
e 42 55
e 3 56
e 7 56
e 10 56
e 31 56
e 32 56
e 42 56
e 50 56
e 51 56
e 9 57
e 19 57
e 24 57
e 36 57
e 42 57
e 54 57
e 7 58
e 13 58
e 33 58
e 47 58
e 56 58
e 7 59
e 25 59
e 45 59
e 47 59
e 43 60
e 47 60
e 49 60
e 58 60
e 22 61
e 28 61
e 29 61
e 30 61
e 32 61
e 33 61
e 43 61
e 52 61
e 60 61
e 16 62
e 18 62
e 29 62
e 47 62
e 9 63
e 41 63
e 42 63
e 51 63
e 52 63
e 3 64
e 4 64
e 20 64
e 54 64
e 2 65
e 40 65
e 47 65
e 54 65
e 59 65
e 5 66
e 7 66
e 26 66
e 46 66
e 59 66
e 64 66
e 1 67
e 4 67
e 9 67
e 17 67
e 41 67
e 47 67
e 66 67
e 7 68
e 11 68
e 12 68
e 14 68
e 15 68
e 21 68
e 31 68
e 57 68
e 19 69
e 21 69
e 22 69
e 23 69
e 24 69
e 32 69
e 7 70
e 22 70
e 23 70
e 26 70
e 29 70
e 64 70
e 66 70
e 67 70
